Route #1: 32 3 6 53 58 44 45 2
Route #2: 23 25 39 42 63 20 57
Route #3: 62 43 49 52
Route #4: 1 26 41 54 31 7
Route #5: 30 46 34 40 38 27 21 8 17
Route #6: 33 29 11 28 56 13 16
Route #7: 47 61 50 10 12
Route #8: 24 5 4 14 59 51 55 22 18
Route #9: 60 48 36 35 15 19 9 37
Cost 861
Time 0.134274
Tempo = 0.16302310000173748